p cnf 361 1
361 0
w 1 0.523657
w 2 1 0.242058
w 2 -1 0.673554
w 3 2 0.614679
w 3 -2 0.94484
w 4 3 1
w 4 -3 0
w 5 4 0.993378
w 5 -4 0.362986
w 6 5 0.519594
w 6 -5 0.0591792
w 7 6 0.276861
w 7 -6 0.41204
w 8 7 0
w 8 -7 1
w 9 8 0.760699
w 9 -8 0.448989
w 10 9 0
w 10 -9 1
w 11 10 1
w 11 -10 0
w 12 11 1
w 12 -11 0
w 13 12 0.504143
w 13 -12 0.555022
w 14 13 0
w 14 -13 1
w 15 14 1
w 15 -14 0
w 16 15 0
w 16 -15 1
w 17 16 0
w 17 -16 1
w 18 17 0
w 18 -17 1
w 19 18 0.754845
w 19 -18 0.994792
w 20 1 0.281645
w 20 -1 0.271653
w 21 20 2 1
w 21 20 -2 0
w 21 -20 2 0
w 21 -20 -2 0
w 22 21 3 0
w 22 21 -3 1
w 22 -21 3 1
w 22 -21 -3 0
w 23 22 4 1
w 23 22 -4 1
w 23 -22 4 1
w 23 -22 -4 0
w 24 23 5 0.411852
w 24 23 -5 0.274922
w 24 -23 5 0.00496998
w 24 -23 -5 0.772733
w 25 24 6 1
w 25 24 -6 0
w 25 -24 6 0
w 25 -24 -6 0
w 26 25 7 0
w 26 25 -7 1
w 26 -25 7 1
w 26 -25 -7 0
w 27 26 8 0.258469
w 27 26 -8 0.863908
w 27 -26 8 0.696307
w 27 -26 -8 0.751471
w 28 27 9 0.570076
w 28 27 -9 0.902787
w 28 -27 9 0.408328
w 28 -27 -9 0.75368
w 29 28 10 1
w 29 28 -10 0
w 29 -28 10 1
w 29 -28 -10 0
w 30 29 11 0
w 30 29 -11 0
w 30 -29 11 0
w 30 -29 -11 1
w 31 30 12 0.970445
w 31 30 -12 0.0473842
w 31 -30 12 0.158933
w 31 -30 -12 0.932433
w 32 31 13 0.403454
w 32 31 -13 0.889214
w 32 -31 13 0.541591
w 32 -31 -13 0.92962
w 33 32 14 1
w 33 32 -14 1
w 33 -32 14 1
w 33 -32 -14 0
w 34 33 15 0.929925
w 34 33 -15 0.640547
w 34 -33 15 0.842347
w 34 -33 -15 0.338253
w 35 34 16 0
w 35 34 -16 0
w 35 -34 16 0
w 35 -34 -16 1
w 36 35 17 1
w 36 35 -17 0
w 36 -35 17 1
w 36 -35 -17 1
w 37 36 18 0.0740783
w 37 36 -18 0.206749
w 37 -36 18 0.7403
w 37 -36 -18 0.233012
w 38 37 19 0
w 38 37 -19 0
w 38 -37 19 0
w 38 -37 -19 1
w 39 20 0.146043
w 39 -20 0.5594
w 40 39 21 0.127598
w 40 39 -21 0.629871
w 40 -39 21 0.693735
w 40 -39 -21 0.0575232
w 41 40 22 1
w 41 40 -22 1
w 41 -40 22 0
w 41 -40 -22 1
w 42 41 23 0.938609
w 42 41 -23 0.0793108
w 42 -41 23 0.817583
w 42 -41 -23 0.691258
w 43 42 24 0.222404
w 43 42 -24 0.927562
w 43 -42 24 0.550611
w 43 -42 -24 0.296482
w 44 43 25 0
w 44 43 -25 1
w 44 -43 25 0
w 44 -43 -25 0
w 45 44 26 1
w 45 44 -26 1
w 45 -44 26 0
w 45 -44 -26 1
w 46 45 27 0.486221
w 46 45 -27 0.575531
w 46 -45 27 0.309062
w 46 -45 -27 0.179956
w 47 46 28 0.579479
w 47 46 -28 0.716038
w 47 -46 28 0.0288307
w 47 -46 -28 0.244124
w 48 47 29 1
w 48 47 -29 1
w 48 -47 29 1
w 48 -47 -29 0
w 49 48 30 0
w 49 48 -30 0
w 49 -48 30 0
w 49 -48 -30 1
w 50 49 31 0.93729
w 50 49 -31 0.528476
w 50 -49 31 0.209359
w 50 -49 -31 0.871846
w 51 50 32 0.511249
w 51 50 -32 0.991637
w 51 -50 32 0.426482
w 51 -50 -32 0.959182
w 52 51 33 0.912703
w 52 51 -33 0.534713
w 52 -51 33 0.97989
w 52 -51 -33 0.0926592
w 53 52 34 0
w 53 52 -34 0
w 53 -52 34 1
w 53 -52 -34 0
w 54 53 35 0.85911
w 54 53 -35 0.986226
w 54 -53 35 0.20553
w 54 -53 -35 0.339205
w 55 54 36 0.301297
w 55 54 -36 0.0417044
w 55 -54 36 0.66177
w 55 -54 -36 0.947677
w 56 55 37 1
w 56 55 -37 0
w 56 -55 37 1
w 56 -55 -37 1
w 57 56 38 0.263597
w 57 56 -38 0.318242
w 57 -56 38 0.74845
w 57 -56 -38 0.690079
w 58 39 0
w 58 -39 1
w 59 58 40 0.812137
w 59 58 -40 0.399169
w 59 -58 40 0.695442
w 59 -58 -40 0.979904
w 60 59 41 0.504138
w 60 59 -41 0.176501
w 60 -59 41 0.762032
w 60 -59 -41 0.471596
w 61 60 42 0
w 61 60 -42 1
w 61 -60 42 0
w 61 -60 -42 0
w 62 61 43 0.416521
w 62 61 -43 0.270245
w 62 -61 43 0.9261
w 62 -61 -43 0.457207
w 63 62 44 0.811067
w 63 62 -44 0.0263684
w 63 -62 44 0.674873
w 63 -62 -44 0.56788
w 64 63 45 1
w 64 63 -45 1
w 64 -63 45 1
w 64 -63 -45 0
w 65 64 46 0.582828
w 65 64 -46 0.0826767
w 65 -64 46 0.134777
w 65 -64 -46 0.278269
w 66 65 47 1
w 66 65 -47 1
w 66 -65 47 0
w 66 -65 -47 1
w 67 66 48 0
w 67 66 -48 1
w 67 -66 48 1
w 67 -66 -48 1
w 68 67 49 0.0660303
w 68 67 -49 0.482324
w 68 -67 49 0.835654
w 68 -67 -49 0.523237
w 69 68 50 1
w 69 68 -50 0
w 69 -68 50 0
w 69 -68 -50 0
w 70 69 51 1
w 70 69 -51 1
w 70 -69 51 1
w 70 -69 -51 0
w 71 70 52 0
w 71 70 -52 1
w 71 -70 52 0
w 71 -70 -52 1
w 72 71 53 0
w 72 71 -53 1
w 72 -71 53 0
w 72 -71 -53 0
w 73 72 54 0.953585
w 73 72 -54 0.648255
w 73 -72 54 0.597274
w 73 -72 -54 0.165664
w 74 73 55 0.663304
w 74 73 -55 0.647989
w 74 -73 55 0.393462
w 74 -73 -55 0.186541
w 75 74 56 0.0401829
w 75 74 -56 0.736147
w 75 -74 56 0.0232694
w 75 -74 -56 0.254783
w 76 75 57 0.0414618
w 76 75 -57 0.785714
w 76 -75 57 0.395334
w 76 -75 -57 0.330194
w 77 58 1
w 77 -58 0
w 78 77 59 0.453569
w 78 77 -59 0.478491
w 78 -77 59 0.135592
w 78 -77 -59 0.948202
w 79 78 60 0.808663
w 79 78 -60 0.298181
w 79 -78 60 0.658737
w 79 -78 -60 0.756428
w 80 79 61 1
w 80 79 -61 1
w 80 -79 61 0
w 80 -79 -61 1
w 81 80 62 1
w 81 80 -62 1
w 81 -80 62 1
w 81 -80 -62 0
w 82 81 63 1
w 82 81 -63 1
w 82 -81 63 0
w 82 -81 -63 0
w 83 82 64 1
w 83 82 -64 1
w 83 -82 64 1
w 83 -82 -64 0
w 84 83 65 0.16014
w 84 83 -65 0.844766
w 84 -83 65 0.187014
w 84 -83 -65 0.295732
w 85 84 66 0.128626
w 85 84 -66 0.104395
w 85 -84 66 0.0911491
w 85 -84 -66 0.787363
w 86 85 67 0.342915
w 86 85 -67 0.0943555
w 86 -85 67 0.214525
w 86 -85 -67 0.760346
w 87 86 68 0.231531
w 87 86 -68 0.825766
w 87 -86 68 0.217419
w 87 -86 -68 0.435078
w 88 87 69 0.515866
w 88 87 -69 0.374772
w 88 -87 69 0.976259
w 88 -87 -69 0.069095
w 89 88 70 0.104603
w 89 88 -70 0.408038
w 89 -88 70 0.800929
w 89 -88 -70 0.56314
w 90 89 71 0.509453
w 90 89 -71 0.72328
w 90 -89 71 0.644001
w 90 -89 -71 0.696467
w 91 90 72 1
w 91 90 -72 0
w 91 -90 72 1
w 91 -90 -72 1
w 92 91 73 0.984229
w 92 91 -73 0.871033
w 92 -91 73 0.706812
w 92 -91 -73 0.198754
w 93 92 74 0.665969
w 93 92 -74 0.430285
w 93 -92 74 0.457144
w 93 -92 -74 0.883388
w 94 93 75 0.346522
w 94 93 -75 0.399254
w 94 -93 75 0.240134
w 94 -93 -75 0.322781
w 95 94 76 1
w 95 94 -76 1
w 95 -94 76 0
w 95 -94 -76 0
w 96 77 0.675622
w 96 -77 0.4407
w 97 96 78 0.319623
w 97 96 -78 0.137167
w 97 -96 78 0.732815
w 97 -96 -78 0.756591
w 98 97 79 0.856222
w 98 97 -79 0.284708
w 98 -97 79 0.574717
w 98 -97 -79 0.840451
w 99 98 80 1
w 99 98 -80 0
w 99 -98 80 1
w 99 -98 -80 1
w 100 99 81 0
w 100 99 -81 1
w 100 -99 81 1
w 100 -99 -81 0
w 101 100 82 1
w 101 100 -82 0
w 101 -100 82 1
w 101 -100 -82 0
w 102 101 83 0
w 102 101 -83 0
w 102 -101 83 0
w 102 -101 -83 1
w 103 102 84 0
w 103 102 -84 0
w 103 -102 84 1
w 103 -102 -84 0
w 104 103 85 0
w 104 103 -85 0
w 104 -103 85 1
w 104 -103 -85 0
w 105 104 86 0
w 105 104 -86 1
w 105 -104 86 1
w 105 -104 -86 1
w 106 105 87 0.983461
w 106 105 -87 0.798543
w 106 -105 87 0.811312
w 106 -105 -87 0.318313
w 107 106 88 0
w 107 106 -88 1
w 107 -106 88 0
w 107 -106 -88 0
w 108 107 89 0.643847
w 108 107 -89 0.314819
w 108 -107 89 0.235154
w 108 -107 -89 0.975322
w 109 108 90 0.312405
w 109 108 -90 0.0206008
w 109 -108 90 0.135439
w 109 -108 -90 0.526823
w 110 109 91 0.462151
w 110 109 -91 0.703502
w 110 -109 91 0.43301
w 110 -109 -91 0.0735712
w 111 110 92 0
w 111 110 -92 0
w 111 -110 92 1
w 111 -110 -92 0
w 112 111 93 1
w 112 111 -93 0
w 112 -111 93 1
w 112 -111 -93 0
w 113 112 94 0.582882
w 113 112 -94 0.321012
w 113 -112 94 0.616822
w 113 -112 -94 0.885778
w 114 113 95 0
w 114 113 -95 0
w 114 -113 95 1
w 114 -113 -95 1
w 115 96 0.941091
w 115 -96 0.762986
w 116 115 97 0.0765303
w 116 115 -97 0.289809
w 116 -115 97 0.324242
w 116 -115 -97 0.538682
w 117 116 98 0.757252
w 117 116 -98 0.612253
w 117 -116 98 0.448208
w 117 -116 -98 0.665029
w 118 117 99 1
w 118 117 -99 0
w 118 -117 99 1
w 118 -117 -99 0
w 119 118 100 0
w 119 118 -100 1
w 119 -118 100 1
w 119 -118 -100 0
w 120 119 101 1
w 120 119 -101 0
w 120 -119 101 1
w 120 -119 -101 1
w 121 120 102 0
w 121 120 -102 1
w 121 -120 102 0
w 121 -120 -102 0
w 122 121 103 0
w 122 121 -103 1
w 122 -121 103 0
w 122 -121 -103 0
w 123 122 104 0.544442
w 123 122 -104 0.151823
w 123 -122 104 0.610133
w 123 -122 -104 0.99265
w 124 123 105 0.0631176
w 124 123 -105 0.928681
w 124 -123 105 0.903629
w 124 -123 -105 0.911113
w 125 124 106 1
w 125 124 -106 0
w 125 -124 106 0
w 125 -124 -106 0
w 126 125 107 1
w 126 125 -107 0
w 126 -125 107 1
w 126 -125 -107 0
w 127 126 108 1
w 127 126 -108 1
w 127 -126 108 0
w 127 -126 -108 1
w 128 127 109 0
w 128 127 -109 0
w 128 -127 109 1
w 128 -127 -109 1
w 129 128 110 1
w 129 128 -110 1
w 129 -128 110 0
w 129 -128 -110 0
w 130 129 111 1
w 130 129 -111 1
w 130 -129 111 0
w 130 -129 -111 0
w 131 130 112 0.404734
w 131 130 -112 0.905806
w 131 -130 112 0.617537
w 131 -130 -112 0.0158577
w 132 131 113 0
w 132 131 -113 1
w 132 -131 113 0
w 132 -131 -113 1
w 133 132 114 0.697332
w 133 132 -114 0.255673
w 133 -132 114 0.940075
w 133 -132 -114 0.369246
w 134 115 0
w 134 -115 1
w 135 134 116 1
w 135 134 -116 1
w 135 -134 116 0
w 135 -134 -116 0
w 136 135 117 0
w 136 135 -117 0
w 136 -135 117 1
w 136 -135 -117 0
w 137 136 118 0.94627
w 137 136 -118 0.651549
w 137 -136 118 0.881146
w 137 -136 -118 0.547007
w 138 137 119 0
w 138 137 -119 0
w 138 -137 119 1
w 138 -137 -119 1
w 139 138 120 0.531454
w 139 138 -120 0.840047
w 139 -138 120 0.530371
w 139 -138 -120 0.481979
w 140 139 121 0.786045
w 140 139 -121 0.422054
w 140 -139 121 0.906625
w 140 -139 -121 0.953419
w 141 140 122 0.0181143
w 141 140 -122 0.491694
w 141 -140 122 0.605953
w 141 -140 -122 0.266418
w 142 141 123 1
w 142 141 -123 1
w 142 -141 123 0
w 142 -141 -123 1
w 143 142 124 1
w 143 142 -124 1
w 143 -142 124 0
w 143 -142 -124 1
w 144 143 125 1
w 144 143 -125 0
w 144 -143 125 0
w 144 -143 -125 0
w 145 144 126 1
w 145 144 -126 1
w 145 -144 126 0
w 145 -144 -126 0
w 146 145 127 0
w 146 145 -127 0
w 146 -145 127 1
w 146 -145 -127 1
w 147 146 128 0
w 147 146 -128 0
w 147 -146 128 0
w 147 -146 -128 1
w 148 147 129 0
w 148 147 -129 0
w 148 -147 129 1
w 148 -147 -129 1
w 149 148 130 0.743113
w 149 148 -130 0.0195116
w 149 -148 130 0.0657428
w 149 -148 -130 0.836981
w 150 149 131 0
w 150 149 -131 0
w 150 -149 131 1
w 150 -149 -131 1
w 151 150 132 0.503689
w 151 150 -132 0.202348
w 151 -150 132 0.859186
w 151 -150 -132 0.119454
w 152 151 133 0
w 152 151 -133 0
w 152 -151 133 0
w 152 -151 -133 1
w 153 134 0
w 153 -134 1
w 154 153 135 0.257255
w 154 153 -135 0.994084
w 154 -153 135 0.969088
w 154 -153 -135 0.0828107
w 155 154 136 0.499479
w 155 154 -136 0.53221
w 155 -154 136 0.485098
w 155 -154 -136 0.242593
w 156 155 137 0.550841
w 156 155 -137 0.079574
w 156 -155 137 0.688353
w 156 -155 -137 0.770207
w 157 156 138 0.106648
w 157 156 -138 0.215337
w 157 -156 138 0.665845
w 157 -156 -138 0.610337
w 158 157 139 1
w 158 157 -139 0
w 158 -157 139 1
w 158 -157 -139 0
w 159 158 140 1
w 159 158 -140 0
w 159 -158 140 1
w 159 -158 -140 1
w 160 159 141 0
w 160 159 -141 1
w 160 -159 141 1
w 160 -159 -141 1
w 161 160 142 0.519924
w 161 160 -142 0.31953
w 161 -160 142 0.211352
w 161 -160 -142 0.00502163
w 162 161 143 0.763073
w 162 161 -143 0.555862
w 162 -161 143 0.641697
w 162 -161 -143 0.451426
w 163 162 144 1
w 163 162 -144 1
w 163 -162 144 0
w 163 -162 -144 1
w 164 163 145 0
w 164 163 -145 0
w 164 -163 145 1
w 164 -163 -145 1
w 165 164 146 0.149259
w 165 164 -146 0.78035
w 165 -164 146 0.276572
w 165 -164 -146 0.276807
w 166 165 147 0
w 166 165 -147 1
w 166 -165 147 1
w 166 -165 -147 1
w 167 166 148 0.394901
w 167 166 -148 0.808867
w 167 -166 148 0.267352
w 167 -166 -148 0.606252
w 168 167 149 0.829475
w 168 167 -149 0.369325
w 168 -167 149 0.369751
w 168 -167 -149 0.471172
w 169 168 150 0.695821
w 169 168 -150 0.910244
w 169 -168 150 0.378825
w 169 -168 -150 0.237227
w 170 169 151 0
w 170 169 -151 0
w 170 -169 151 0
w 170 -169 -151 1
w 171 170 152 0
w 171 170 -152 1
w 171 -170 152 0
w 171 -170 -152 1
w 172 153 0.91442
w 172 -153 0.749659
w 173 172 154 0.630178
w 173 172 -154 0.0386024
w 173 -172 154 0.947097
w 173 -172 -154 0.0250791
w 174 173 155 0.214449
w 174 173 -155 0.631331
w 174 -173 155 0.661359
w 174 -173 -155 0.0439234
w 175 174 156 1
w 175 174 -156 0
w 175 -174 156 0
w 175 -174 -156 0
w 176 175 157 0
w 176 175 -157 0
w 176 -175 157 0
w 176 -175 -157 1
w 177 176 158 0
w 177 176 -158 1
w 177 -176 158 0
w 177 -176 -158 1
w 178 177 159 0.736924
w 178 177 -159 0.659112
w 178 -177 159 0.884534
w 178 -177 -159 0.486583
w 179 178 160 0.514712
w 179 178 -160 0.525185
w 179 -178 160 0.605484
w 179 -178 -160 0.539792
w 180 179 161 0
w 180 179 -161 1
w 180 -179 161 1
w 180 -179 -161 1
w 181 180 162 0
w 181 180 -162 1
w 181 -180 162 0
w 181 -180 -162 0
w 182 181 163 0.19342
w 182 181 -163 0.756213
w 182 -181 163 0.24479
w 182 -181 -163 0.940889
w 183 182 164 0.3304
w 183 182 -164 0.133797
w 183 -182 164 0.0918112
w 183 -182 -164 0.603382
w 184 183 165 0.0619251
w 184 183 -165 0.340306
w 184 -183 165 0.580516
w 184 -183 -165 0.946459
w 185 184 166 0.238903
w 185 184 -166 0.461171
w 185 -184 166 0.352074
w 185 -184 -166 0.844388
w 186 185 167 1
w 186 185 -167 1
w 186 -185 167 0
w 186 -185 -167 0
w 187 186 168 0.343866
w 187 186 -168 0.823866
w 187 -186 168 0.907129
w 187 -186 -168 0.337053
w 188 187 169 0.711419
w 188 187 -169 0.530473
w 188 -187 169 0.372133
w 188 -187 -169 0.956209
w 189 188 170 1
w 189 188 -170 0
w 189 -188 170 0
w 189 -188 -170 0
w 190 189 171 0.526564
w 190 189 -171 0.44256
w 190 -189 171 0.230297
w 190 -189 -171 0.10708
w 191 172 0
w 191 -172 1
w 192 191 173 1
w 192 191 -173 0
w 192 -191 173 1
w 192 -191 -173 0
w 193 192 174 0
w 193 192 -174 0
w 193 -192 174 1
w 193 -192 -174 1
w 194 193 175 1
w 194 193 -175 0
w 194 -193 175 1
w 194 -193 -175 0
w 195 194 176 1
w 195 194 -176 1
w 195 -194 176 0
w 195 -194 -176 1
w 196 195 177 0.244236
w 196 195 -177 0.311153
w 196 -195 177 0.374108
w 196 -195 -177 0.134228
w 197 196 178 0.816667
w 197 196 -178 0.364525
w 197 -196 178 0.944796
w 197 -196 -178 0.205686
w 198 197 179 1
w 198 197 -179 1
w 198 -197 179 0
w 198 -197 -179 0
w 199 198 180 0.964958
w 199 198 -180 0.335843
w 199 -198 180 0.930268
w 199 -198 -180 0.857689
w 200 199 181 0.297373
w 200 199 -181 0.574286
w 200 -199 181 0.00871047
w 200 -199 -181 0.00153104
w 201 200 182 0.0101278
w 201 200 -182 0.236162
w 201 -200 182 0.611453
w 201 -200 -182 0.967754
w 202 201 183 0.604926
w 202 201 -183 0.211991
w 202 -201 183 0.253308
w 202 -201 -183 0.979034
w 203 202 184 0
w 203 202 -184 1
w 203 -202 184 1
w 203 -202 -184 0
w 204 203 185 1
w 204 203 -185 0
w 204 -203 185 1
w 204 -203 -185 1
w 205 204 186 0.964293
w 205 204 -186 0.928382
w 205 -204 186 0.143594
w 205 -204 -186 0.894562
w 206 205 187 0.862306
w 206 205 -187 0.191935
w 206 -205 187 0.360357
w 206 -205 -187 0.871017
w 207 206 188 0
w 207 206 -188 0
w 207 -206 188 1
w 207 -206 -188 0
w 208 207 189 0.371783
w 208 207 -189 0.48354
w 208 -207 189 0.0608895
w 208 -207 -189 0.625091
w 209 208 190 0
w 209 208 -190 0
w 209 -208 190 1
w 209 -208 -190 1
w 210 191 0.259664
w 210 -191 0.250304
w 211 210 192 1
w 211 210 -192 1
w 211 -210 192 1
w 211 -210 -192 0
w 212 211 193 0
w 212 211 -193 1
w 212 -211 193 1
w 212 -211 -193 0
w 213 212 194 1
w 213 212 -194 0
w 213 -212 194 0
w 213 -212 -194 0
w 214 213 195 0.990811
w 214 213 -195 0.434312
w 214 -213 195 0.493249
w 214 -213 -195 0.362594
w 215 214 196 0.554139
w 215 214 -196 0.987685
w 215 -214 196 0.380427
w 215 -214 -196 0.961246
w 216 215 197 0.638703
w 216 215 -197 0.0790969
w 216 -215 197 0.455737
w 216 -215 -197 0.898367
w 217 216 198 0
w 217 216 -198 1
w 217 -216 198 1
w 217 -216 -198 1
w 218 217 199 1
w 218 217 -199 0
w 218 -217 199 0
w 218 -217 -199 1
w 219 218 200 0
w 219 218 -200 0
w 219 -218 200 0
w 219 -218 -200 1
w 220 219 201 0
w 220 219 -201 0
w 220 -219 201 1
w 220 -219 -201 0
w 221 220 202 0.809818
w 221 220 -202 0.797577
w 221 -220 202 0.942286
w 221 -220 -202 0.190245
w 222 221 203 0.646086
w 222 221 -203 0.828948
w 222 -221 203 0.83792
w 222 -221 -203 0.101823
w 223 222 204 0.167321
w 223 222 -204 0.636097
w 223 -222 204 0.94261
w 223 -222 -204 0.710449
w 224 223 205 1
w 224 223 -205 0
w 224 -223 205 1
w 224 -223 -205 0
w 225 224 206 1
w 225 224 -206 0
w 225 -224 206 0
w 225 -224 -206 1
w 226 225 207 0.368711
w 226 225 -207 0.705766
w 226 -225 207 0.344643
w 226 -225 -207 0.260676
w 227 226 208 0.299244
w 227 226 -208 0.0704936
w 227 -226 208 0.746782
w 227 -226 -208 0.24153
w 228 227 209 1
w 228 227 -209 0
w 228 -227 209 1
w 228 -227 -209 1
w 229 210 0.817002
w 229 -210 0.510847
w 230 229 211 0.759612
w 230 229 -211 0.221296
w 230 -229 211 0.682195
w 230 -229 -211 0.198738
w 231 230 212 0.189298
w 231 230 -212 0.310161
w 231 -230 212 0.626086
w 231 -230 -212 0.0390353
w 232 231 213 1
w 232 231 -213 1
w 232 -231 213 1
w 232 -231 -213 0
w 233 232 214 0.558876
w 233 232 -214 0.166531
w 233 -232 214 0.649582
w 233 -232 -214 0.858121
w 234 233 215 0
w 234 233 -215 0
w 234 -233 215 1
w 234 -233 -215 1
w 235 234 216 0.58745
w 235 234 -216 0.245494
w 235 -234 216 0.976706
w 235 -234 -216 0.404452
w 236 235 217 0.602242
w 236 235 -217 0.164064
w 236 -235 217 0.977638
w 236 -235 -217 0.284436
w 237 236 218 0
w 237 236 -218 1
w 237 -236 218 0
w 237 -236 -218 0
w 238 237 219 0.134562
w 238 237 -219 0.75785
w 238 -237 219 0.507382
w 238 -237 -219 0.348795
w 239 238 220 0.207759
w 239 238 -220 0.907672
w 239 -238 220 0.830237
w 239 -238 -220 0.857341
w 240 239 221 0.0672623
w 240 239 -221 0.253705
w 240 -239 221 0.865443
w 240 -239 -221 0.565026
w 241 240 222 0
w 241 240 -222 1
w 241 -240 222 0
w 241 -240 -222 0
w 242 241 223 0.15751
w 242 241 -223 0.431658
w 242 -241 223 0.720993
w 242 -241 -223 0.135147
w 243 242 224 0.0837949
w 243 242 -224 0.729767
w 243 -242 224 0.189829
w 243 -242 -224 0.756758
w 244 243 225 0.702599
w 244 243 -225 0.89132
w 244 -243 225 0.708324
w 244 -243 -225 0.209981
w 245 244 226 1
w 245 244 -226 0
w 245 -244 226 0
w 245 -244 -226 0
w 246 245 227 1
w 246 245 -227 1
w 246 -245 227 0
w 246 -245 -227 1
w 247 246 228 0.68446
w 247 246 -228 0.631733
w 247 -246 228 0.987031
w 247 -246 -228 0.0856289
w 248 229 1
w 248 -229 0
w 249 248 230 0
w 249 248 -230 1
w 249 -248 230 0
w 249 -248 -230 0
w 250 249 231 0
w 250 249 -231 1
w 250 -249 231 1
w 250 -249 -231 0
w 251 250 232 0.996825
w 251 250 -232 0.766851
w 251 -250 232 0.71131
w 251 -250 -232 0.23694
w 252 251 233 0
w 252 251 -233 1
w 252 -251 233 0
w 252 -251 -233 0
w 253 252 234 1
w 253 252 -234 0
w 253 -252 234 1
w 253 -252 -234 1
w 254 253 235 0.709062
w 254 253 -235 0.432263
w 254 -253 235 0.703007
w 254 -253 -235 0.170211
w 255 254 236 0.946146
w 255 254 -236 0.0630179
w 255 -254 236 0.241174
w 255 -254 -236 0.324432
w 256 255 237 0.589921
w 256 255 -237 0.432485
w 256 -255 237 0.470651
w 256 -255 -237 0.695426
w 257 256 238 0
w 257 256 -238 1
w 257 -256 238 1
w 257 -256 -238 1
w 258 257 239 1
w 258 257 -239 1
w 258 -257 239 0
w 258 -257 -239 1
w 259 258 240 0.348567
w 259 258 -240 0.149391
w 259 -258 240 0.689553
w 259 -258 -240 0.793799
w 260 259 241 0.398615
w 260 259 -241 0.226061
w 260 -259 241 0.469777
w 260 -259 -241 0.568825
w 261 260 242 1
w 261 260 -242 1
w 261 -260 242 0
w 261 -260 -242 1
w 262 261 243 0
w 262 261 -243 0
w 262 -261 243 1
w 262 -261 -243 0
w 263 262 244 0.746395
w 263 262 -244 0.421056
w 263 -262 244 0.921715
w 263 -262 -244 0.429686
w 264 263 245 0
w 264 263 -245 0
w 264 -263 245 1
w 264 -263 -245 0
w 265 264 246 0
w 265 264 -246 0
w 265 -264 246 1
w 265 -264 -246 1
w 266 265 247 0
w 266 265 -247 1
w 266 -265 247 1
w 266 -265 -247 0
w 267 248 0.627058
w 267 -248 0.260362
w 268 267 249 0.0705157
w 268 267 -249 0.000717345
w 268 -267 249 0.868988
w 268 -267 -249 0.103894
w 269 268 250 0
w 269 268 -250 0
w 269 -268 250 1
w 269 -268 -250 1
w 270 269 251 0
w 270 269 -251 1
w 270 -269 251 0
w 270 -269 -251 0
w 271 270 252 1
w 271 270 -252 1
w 271 -270 252 1
w 271 -270 -252 0
w 272 271 253 1
w 272 271 -253 1
w 272 -271 253 0
w 272 -271 -253 0
w 273 272 254 0
w 273 272 -254 0
w 273 -272 254 1
w 273 -272 -254 1
w 274 273 255 1
w 274 273 -255 0
w 274 -273 255 1
w 274 -273 -255 0
w 275 274 256 0.886052
w 275 274 -256 0.796501
w 275 -274 256 0.619049
w 275 -274 -256 0.275849
w 276 275 257 0
w 276 275 -257 1
w 276 -275 257 0
w 276 -275 -257 0
w 277 276 258 0.589689
w 277 276 -258 0.676851
w 277 -276 258 0.466979
w 277 -276 -258 0.128535
w 278 277 259 0.977477
w 278 277 -259 0.866094
w 278 -277 259 0.307316
w 278 -277 -259 0.852531
w 279 278 260 0
w 279 278 -260 0
w 279 -278 260 0
w 279 -278 -260 1
w 280 279 261 0.869762
w 280 279 -261 0.277279
w 280 -279 261 0.641529
w 280 -279 -261 0.651401
w 281 280 262 0
w 281 280 -262 1
w 281 -280 262 0
w 281 -280 -262 0
w 282 281 263 0.534511
w 282 281 -263 0.142544
w 282 -281 263 0.104383
w 282 -281 -263 0.691352
w 283 282 264 1
w 283 282 -264 0
w 283 -282 264 1
w 283 -282 -264 1
w 284 283 265 0
w 284 283 -265 1
w 284 -283 265 1
w 284 -283 -265 1
w 285 284 266 1
w 285 284 -266 0
w 285 -284 266 0
w 285 -284 -266 0
w 286 267 0
w 286 -267 1
w 287 286 268 0
w 287 286 -268 1
w 287 -286 268 1
w 287 -286 -268 0
w 288 287 269 1
w 288 287 -269 1
w 288 -287 269 1
w 288 -287 -269 0
w 289 288 270 0.940892
w 289 288 -270 0.163203
w 289 -288 270 0.988036
w 289 -288 -270 0.634964
w 290 289 271 0.519984
w 290 289 -271 0.457571
w 290 -289 271 0.704361
w 290 -289 -271 0.0294086
w 291 290 272 1
w 291 290 -272 1
w 291 -290 272 0
w 291 -290 -272 1
w 292 291 273 0
w 292 291 -273 1
w 292 -291 273 1
w 292 -291 -273 1
w 293 292 274 0.806669
w 293 292 -274 0.465231
w 293 -292 274 0.898958
w 293 -292 -274 0.30483
w 294 293 275 0.0868422
w 294 293 -275 0.24217
w 294 -293 275 0.53799
w 294 -293 -275 0.923351
w 295 294 276 0.461058
w 295 294 -276 0.864243
w 295 -294 276 0.877224
w 295 -294 -276 0.449093
w 296 295 277 1
w 296 295 -277 0
w 296 -295 277 0
w 296 -295 -277 0
w 297 296 278 0.103049
w 297 296 -278 0.297624
w 297 -296 278 0.38985
w 297 -296 -278 0.96645
w 298 297 279 0.804137
w 298 297 -279 0.364799
w 298 -297 279 0.332338
w 298 -297 -279 0.275976
w 299 298 280 0.313863
w 299 298 -280 0.0826453
w 299 -298 280 0.441055
w 299 -298 -280 0.212821
w 300 299 281 1
w 300 299 -281 0
w 300 -299 281 1
w 300 -299 -281 1
w 301 300 282 0
w 301 300 -282 0
w 301 -300 282 1
w 301 -300 -282 0
w 302 301 283 0.586465
w 302 301 -283 0.62952
w 302 -301 283 0.615741
w 302 -301 -283 0.543243
w 303 302 284 0.614227
w 303 302 -284 0.646292
w 303 -302 284 0.0401343
w 303 -302 -284 0.00407699
w 304 303 285 0.65698
w 304 303 -285 0.808214
w 304 -303 285 0.977541
w 304 -303 -285 0.989318
w 305 286 0
w 305 -286 1
w 306 305 287 1
w 306 305 -287 1
w 306 -305 287 0
w 306 -305 -287 0
w 307 306 288 0.815666
w 307 306 -288 0.183956
w 307 -306 288 0.329456
w 307 -306 -288 0.0386811
w 308 307 289 0.527026
w 308 307 -289 0.125939
w 308 -307 289 0.748512
w 308 -307 -289 0.17369
w 309 308 290 0.378032
w 309 308 -290 0.789431
w 309 -308 290 0.255647
w 309 -308 -290 0.120542
w 310 309 291 0
w 310 309 -291 1
w 310 -309 291 1
w 310 -309 -291 1
w 311 310 292 0.215949
w 311 310 -292 0.492224
w 311 -310 292 0.806975
w 311 -310 -292 0.30014
w 312 311 293 1
w 312 311 -293 0
w 312 -311 293 1
w 312 -311 -293 1
w 313 312 294 0
w 313 312 -294 0
w 313 -312 294 0
w 313 -312 -294 1
w 314 313 295 0
w 314 313 -295 1
w 314 -313 295 0
w 314 -313 -295 1
w 315 314 296 0
w 315 314 -296 1
w 315 -314 296 1
w 315 -314 -296 1
w 316 315 297 0.656215
w 316 315 -297 0.476438
w 316 -315 297 0.140628
w 316 -315 -297 0.0639497
w 317 316 298 0.958285
w 317 316 -298 0.279899
w 317 -316 298 0.483343
w 317 -316 -298 0.76526
w 318 317 299 0.928933
w 318 317 -299 0.875417
w 318 -317 299 0.0470141
w 318 -317 -299 0.768943
w 319 318 300 0.0683008
w 319 318 -300 0.201897
w 319 -318 300 0.943403
w 319 -318 -300 0.273544
w 320 319 301 0.42391
w 320 319 -301 0.00640897
w 320 -319 301 0.253745
w 320 -319 -301 0.030356
w 321 320 302 0
w 321 320 -302 1
w 321 -320 302 0
w 321 -320 -302 1
w 322 321 303 0.327148
w 322 321 -303 0.625644
w 322 -321 303 0.400142
w 322 -321 -303 0.467776
w 323 322 304 0.391262
w 323 322 -304 0.426061
w 323 -322 304 0.969492
w 323 -322 -304 0.874605
w 324 305 0
w 324 -305 1
w 325 324 306 0.066739
w 325 324 -306 0.596545
w 325 -324 306 0.572481
w 325 -324 -306 0.568316
w 326 325 307 0.774378
w 326 325 -307 0.511719
w 326 -325 307 0.938389
w 326 -325 -307 0.738686
w 327 326 308 0.944798
w 327 326 -308 0.99243
w 327 -326 308 0.965984
w 327 -326 -308 0.432585
w 328 327 309 0.315191
w 328 327 -309 0.779781
w 328 -327 309 0.67873
w 328 -327 -309 0.238895
w 329 328 310 1
w 329 328 -310 0
w 329 -328 310 1
w 329 -328 -310 0
w 330 329 311 1
w 330 329 -311 1
w 330 -329 311 0
w 330 -329 -311 0
w 331 330 312 0.708442
w 331 330 -312 0.258827
w 331 -330 312 0.109536
w 331 -330 -312 0.280923
w 332 331 313 0.774381
w 332 331 -313 0.0553008
w 332 -331 313 0.338861
w 332 -331 -313 0.712771
w 333 332 314 0.27449
w 333 332 -314 0.657569
w 333 -332 314 0.786417
w 333 -332 -314 0.240474
w 334 333 315 0
w 334 333 -315 1
w 334 -333 315 1
w 334 -333 -315 0
w 335 334 316 0.976863
w 335 334 -316 0.478823
w 335 -334 316 0.433598
w 335 -334 -316 0.551568
w 336 335 317 0
w 336 335 -317 0
w 336 -335 317 1
w 336 -335 -317 0
w 337 336 318 0.0772433
w 337 336 -318 0.00324883
w 337 -336 318 0.0587773
w 337 -336 -318 0.358166
w 338 337 319 0.833159
w 338 337 -319 0.413467
w 338 -337 319 0.169253
w 338 -337 -319 0.545929
w 339 338 320 0
w 339 338 -320 1
w 339 -338 320 1
w 339 -338 -320 1
w 340 339 321 1
w 340 339 -321 0
w 340 -339 321 0
w 340 -339 -321 0
w 341 340 322 1
w 341 340 -322 1
w 341 -340 322 0
w 341 -340 -322 0
w 342 341 323 0.244352
w 342 341 -323 0.0519035
w 342 -341 323 0.300739
w 342 -341 -323 0.988774
w 343 324 1
w 343 -324 0
w 344 343 325 0.0599227
w 344 343 -325 0.736148
w 344 -343 325 0.822414
w 344 -343 -325 0.893081
w 345 344 326 1
w 345 344 -326 1
w 345 -344 326 0
w 345 -344 -326 1
w 346 345 327 0.350939
w 346 345 -327 0.119626
w 346 -345 327 0.93616
w 346 -345 -327 0.840528
w 347 346 328 0
w 347 346 -328 0
w 347 -346 328 1
w 347 -346 -328 1
w 348 347 329 0.861989
w 348 347 -329 0.932213
w 348 -347 329 0.26308
w 348 -347 -329 0.793927
w 349 348 330 1
w 349 348 -330 0
w 349 -348 330 0
w 349 -348 -330 0
w 350 349 331 1
w 350 349 -331 1
w 350 -349 331 1
w 350 -349 -331 0
w 351 350 332 0
w 351 350 -332 0
w 351 -350 332 1
w 351 -350 -332 1
w 352 351 333 1
w 352 351 -333 0
w 352 -351 333 0
w 352 -351 -333 1
w 353 352 334 0.386557
w 353 352 -334 0.411513
w 353 -352 334 0.279935
w 353 -352 -334 0.626752
w 354 353 335 1
w 354 353 -335 1
w 354 -353 335 1
w 354 -353 -335 0
w 355 354 336 0.637005
w 355 354 -336 0.0305169
w 355 -354 336 0.90087
w 355 -354 -336 0.953135
w 356 355 337 0.0582318
w 356 355 -337 0.329186
w 356 -355 337 0.711961
w 356 -355 -337 0.0380084
w 357 356 338 0.0703723
w 357 356 -338 0.009452
w 357 -356 338 0.306463
w 357 -356 -338 0.785852
w 358 357 339 1
w 358 357 -339 0
w 358 -357 339 1
w 358 -357 -339 0
w 359 358 340 0.828769
w 359 358 -340 0.330481
w 359 -358 340 0.170731
w 359 -358 -340 0.108704
w 360 359 341 0.229672
w 360 359 -341 0.250628
w 360 -359 341 0.516199
w 360 -359 -341 0.551693
w 361 360 342 0
w 361 360 -342 0
w 361 -360 342 1
w 361 -360 -342 0